7,1,4,1,5,1,1,1,4,5,1,4,3,4;8,1,8,2,6,3,5,2,3,2,1,2,1,9;3,1,4,3,7,3,3,3,5,7,1,7,1,8;4,2,6,4,8,4,7,4,4,8,1,6;6,2,2,2,4,4,8,5,7,5,2,5,3,5,7,8;8,3,5,3,4,6,2,4,5,6,8,6,7,6,3,6,2,6,3,8;6,5,4,7,8,7,6,7,7,7,3,7,2,7;2,1,7,2,5,4,6,6,1,5,8,8,4,9,6,8,5,8,2,8,2,9;6,1,2,3,5,5,1,3,8,9,6,9,5,9,7,9,3,9;
